
Gurobi 13.0.2 (win64) logging started Wed Jul 22 22:16:50 2026

Set parameter LogFile to value "E:\codes\ExactEBRP\results\gf_paper_safe_gurobi_scheduling_round27\runs\stage2__V12_M1__c2_paper__300s\external\native_logs\L2.0.0.1.1.1.0.1.1_terminal_mip.gurobi.log"
Gurobi Optimizer version 13.0.2 build v13.0.2rc1 (win64 - Windows 10.0 (19045.2))

CPU model: 12th Gen Intel(R) Core(TM) i7-12700KF, instruction set [SSE2|AVX|AVX2]
Thread count: 12 physical cores, 20 logical processors, using up to 1 threads

Non-default parameters:
TimeLimit  1.9492143020000003e+02
MIPGap  0
MIPGapAbs  0
LogToConsole  0
Threads  1

Optimize a model with 6225 rows, 648 columns and 59365 nonzeros (Min)
Model fingerprint: 0x3816225d
Model has 13 linear objective coefficients
Variable types: 347 continuous, 301 integer (253 binary)
Coefficient statistics:
  Matrix range     [2e-03, 1e+05]
  Objective range  [2e-03, 1e+00]
  Bounds range     [1e-01, 8e+01]
  RHS range        [3e-02, 1e+06]

Presolve removed 742 rows and 27 columns
Presolve time: 0.13s
Presolved: 5483 rows, 621 columns, 58745 nonzeros
Variable types: 321 continuous, 300 integer (252 binary)

Root relaxation: objective 3.228184e-01, 986 iterations, 0.05 seconds (0.15 work units)

    Nodes    |    Current Node    |     Objective Bounds      |     Work
 Expl Unexpl |  Obj  Depth IntInf | Incumbent    BestBd   Gap | It/Node Time

     0     0    0.32282    0  112          -    0.32282      -     -    0s
     0     0    0.32636    0   81          -    0.32636      -     -    0s
     0     0    0.32647    0   84          -    0.32647      -     -    0s
     0     0    0.33051    0   96          -    0.33051      -     -    0s
     0     0    0.33220    0   94          -    0.33220      -     -    0s
     0     0    0.33523    0   93          -    0.33523      -     -    1s
     0     0    0.33646    0   97          -    0.33646      -     -    1s
     0     0    0.33681    0  101          -    0.33681      -     -    1s
     0     0    0.33701    0  109          -    0.33701      -     -    1s
     0     0    0.33819    0  113          -    0.33819      -     -    1s
     0     0    0.33827    0  111          -    0.33827      -     -    1s
     0     0    0.33849    0  114          -    0.33849      -     -    1s
     0     0    0.33857    0  112          -    0.33857      -     -    1s
     0     0    0.33865    0  121          -    0.33865      -     -    2s
     0     0    0.33866    0  102          -    0.33866      -     -    2s
     0     0    0.33883    0  101          -    0.33883      -     -    2s
     0     0    0.33897    0  100          -    0.33897      -     -    2s
     0     0    0.33898    0  101          -    0.33898      -     -    2s
     0     0    0.33909    0  102          -    0.33909      -     -    2s
     0     0    0.33909    0  102          -    0.33909      -     -    2s
     0     0    0.33909    0  102          -    0.33909      -     -    2s
     0     0    0.33909    0  102          -    0.33909      -     -    2s
     0     0    0.33909    0  102          -    0.33909      -     -    3s
     0     0    0.33909    0  101          -    0.33909      -     -    3s
     0     2    0.33923    0  101          -    0.33923      -     -    3s

Cutting planes:
  Learned: 3
  Gomory: 2
  Cover: 12
  Implied bound: 32
  Clique: 23
  MIR: 43
  StrongCG: 1
  Flow cover: 18
  Zero half: 2
  Network: 3
  RLT: 10
  Relax-and-lift: 13
  BQP: 11
  PSD: 1

Explored 5 nodes (2900 simplex iterations) in 3.83 seconds (4.54 work units)
Thread count was 1 (of 20 available processors)

Solution count 0

Model is infeasible
Best objective -, best bound -, gap -

User-callback calls 2386, time in user-callback 0.00 sec
